p cnf 8 27
-8 3 -4 6 0
-6 4 -2 0
-7 0
-8 3 7 -5 0
4 0
-3 5 0
8 1 5 -7 0
-3 0
-8 1 -3 0
-5 -4 0
8 -7 4 0
1 -7 7 0
3 0
2 -6 6 -1 0
-6 4 6 0
4 0
3 -5 0
-7 -5 0
-8 0
-6 2 5 -5 0
-8 -4 7 0
3 4 -4 0
4 6 0
2 -5 -4 6 0
1 -5 5 -2 0
3 0
5 -2 0
